17	4	3
31	38	39	44	9	30	16	
0	0	0	0	0	10	6	10	6	5	6	3	2	3	4
9	10	6	9	4	3	6	5	5	2	8	3	5	11	17
6	8	8	2	5	2	5	8	6	9	1	1	17
10	1	1	3	4	7	9	7	1	2	3	3	6	7	13
3	3	9	8	8	4	8	3	5	3	9	3	8	10	17
25	7	3	9	9	9	3	4	9	8	8	1	17
225	6	2	8	6	5	10	3	9	5	5	3	9	10	14
150	2	8	8	8	6	7	9	4	2	7	1	17
125	1	9	7	10	4	8	6	10	9	7	1	17
50	4	6	6	8	2	3	4	5	7	7	2	17	17
150	2	2	6	1	3	6	9	6	4	6	2	12	13
25	10	3	2	10	4	8	6	6	6	10	1	17
3	10	10	8	6	1	2	7	9	6	8	2	15	17
9	5	10	9	6	6	9	6	1	9	4	2	16	17
1	3	9	9	3	8	1	6	2	5	3	1	17
2	8	6	4	10	8	8	8	7	3	1	1	17
0	0	0	0	0	2	6	9	7	2	5	0
